robust/generate/spp_dkp_Lefebvre_et_al_2026/src/shortest_path_4_9.kp
51
77

[5.2 0.34 2.64 4.96 2.19 7.31 1.21 2.99 4.54 3.76]

[6 63 43 43 45 77 26 13 27 46]
